enter example

minimize
 x0 + x1 + x2 + x3 + x4 + x5 + x6 + x7 + x8 + x9 + x10 + x11 + x12 + x13 + x14 + x15 + x16 + x17 + x18 + x19 + x20 + x21 + x22 + x23 + x24 + x25 + x26 + x27 + x28 + x29 + x30 + x31 + x32 + x33 + x34 + x35 + x36 + x37 + x38 + x39 + x40 +
 z0 + z1 + z2 + z3 + z4 + z5 + z6 + z7 + z8 + z9 + z10 + z11 + z12 + z13 + z14 + z15 + z16 + z17 + z18 + z19 + z20 + z21 + z22 + z23 + z24 + z25 + z26 + z27 + z28 + z29 + z30 + z31 + z32 + z33 + z34 + z35 + z36 + z37 + z38 + z39 + z40 +
 y0 + y1 + y2 + y3 + y4 + y5 + y6 + y7 + y8 + y9 + y10 + y11 + y12 + y13 + y14 + y15 + y16 + y17 + y18 + y19 + y20 + y21 + y22 + y23 + y24 + y25 + y26 + y27 + y28 + y29 + y30 + y31 + y32 + y33 + y34 + y35 + y36 + y37 + y38 + y39 + y40

subject to 
x0 + y0 + x5 + y5 + x25 + y25 -2 w0 = 0
x1 + y1 + x6 + y6 + x25 + y25 + x26 + y26 -2 w1 = 0
x2 + y2 + x7 + y7 + x26 + y26 + x27 + y27 -2 w2 = 0
x3 + y3 + x8 + y8 + x27 + y27 + x28 + y28 -2 w3 = 0
x4 + y4 + x9 + y9 + x28 + y28 -2 w4 = 0
x5 + y5 + x10 + y10 + x29 + y29 -2 w5 = 1
x6 + y6 + x11 + y11 + x29 + y29 + x30 + y30 -2 w6 = 0
x7 + y7 + x12 + y12 + x30 + y30 + x31 + y31 -2 w7 = 1
x8 + y8 + x13 + y13 + x31 + y31 + x32 + y32 -2 w8 = 0
x9 + y9 + x14 + y14 + x32 + y32 -2 w9 = 0
x10 + y10 + x15 + y15 + x33 + y33 -2 w10 = 0
x11 + y11 + x16 + y16 + x33 + y33 + x34 + y34 -2 w11 = 1
x12 + y12 + x17 + y17 + x34 + y34 + x35 + y35 -2 w12 = 0
x13 + y13 + x18 + y18 + x35 + y35 + x36 + y36 -2 w13 = 0
x14 + y14 + x19 + y19 + x36 + y36 -2 w14 = 0
x15 + y15 + x20 + y20 + x37 + y37 -2 w15 = 0
x16 + y16 + x21 + y21 + x37 + y37 + x38 + y38 -2 w16 = 1
x17 + y17 + x22 + y22 + x38 + y38 + x39 + y39 -2 w17 = 1
x18 + y18 + x23 + y23 + x39 + y39 + x40 + y40 -2 w18 = 0
x19 + y19 + x24 + y24 + x40 + y40 -2 w19 = 0
z0 + y0 + z1 + y1 + z25 + y25 -2 w20 = 0
z1 + y1 + z2 + y2 + z26 + y26 -2 w21 = 0
z2 + y2 + z3 + y3 + z27 + y27 -2 w22 = 0
z3 + y3 + z4 + y4 + z28 + y28 -2 w23 = 1
z5 + y5 + z6 + y6 + z25 + y25 + z29 + y29 -2 w24 = 0
z6 + y6 + z7 + y7 + z26 + y26 + z30 + y30 -2 w25 = 0
z7 + y7 + z8 + y8 + z27 + y27 + z31 + y31 -2 w26 = 1
z8 + y8 + z9 + y9 + z28 + y28 + z32 + y32 -2 w27 = 1
z10 + y10 + z11 + y11 + z29 + y29 + z33 + y33 -2 w28 = 1
z11 + y11 + z12 + y12 + z30 + y30 + z34 + y34 -2 w29 = 0
z12 + y12 + z13 + y13 + z31 + y31 + z35 + y35 -2 w30 = 0
z13 + y13 + z14 + y14 + z32 + y32 + z36 + y36 -2 w31 = 0
z15 + y15 + z16 + y16 + z33 + y33 + z37 + y37 -2 w32 = 1
z16 + y16 + z17 + y17 + z34 + y34 + z38 + y38 -2 w33 = 0
z17 + y17 + z18 + y18 + z35 + y35 + z39 + y39 -2 w34 = 1
z18 + y18 + z19 + y19 + z36 + y36 + z40 + y40 -2 w35 = 1
z20 + y20 + z21 + y21 + z37 + y37 -2 w36 = 0
z21 + y21 + z22 + y22 + z38 + y38 -2 w37 = 0
z22 + y22 + z23 + y23 + z39 + y39 -2 w38 = 0
z23 + y23 + z24 + y24 + z40 + y40 -2 w39 = 0


bound

general
w0
w1
w2
w3
w4
w5
w6
w7
w8
w9
w10
w11
w12
w13
w14
w15
w16
w17
w18
w19
w20
w21
w22
w23
w24
w25
w26
w27
w28
w29
w30
w31
w32
w33
w34
w35
w36
w37
w38
w39


binary

x0
x1
x2
x3
x4
x5
x6
x7
x8
x9
x10
x11
x12
x13
x14
x15
x16
x17
x18
x19
x20
x21
x22
x23
x24
x25
x26
x27
x28
x29
x30
x31
x32
x33
x34
x35
x36
x37
x38
x39
x40
y0
y1
y2
y3
y4
y5
y6
y7
y8
y9
y10
y11
y12
y13
y14
y15
y16
y17
y18
y19
y20
y21
y22
y23
y24
y25
y26
y27
y28
y29
y30
y31
y32
y33
y34
y35
y36
y37
y38
y39
y40
z0
z1
z2
z3
z4
z5
z6
z7
z8
z9
z10
z11
z12
z13
z14
z15
z16
z17
z18
z19
z20
z21
z22
z23
z24
z25
z26
z27
z28
z29
z30
z31
z32
z33
z34
z35
z36
z37
z38
z39
z40


end